0
Node Left Objective IInf Best_Integer Best_Bound ItCnt Gap
0+ 0 nan nan 17080.7259 -1708.0726 nan 110.00%
0+ 0 nan nan -66.3573 -1708.0726 nan ---
0 0 -93.0816 11 -66.3573 -93.0816 79 40.27%
0+ 0 nan nan -85.7652 -93.0816 nan 8.53%
0 0 -90.8238 15 -85.7652 Cuts:15 100 5.90%
0 0 -90.2954 14 -85.7652 Cuts:16 123 5.28%
0+ 0 nan nan -85.8948 -90.2954 nan 5.12%
0 0 -90.0602 16 -85.8948 Cuts:13 140 4.85%
0 0 -89.8883 15 -85.8948 Cuts:12 154 4.65%
0+ 0 nan nan -86.4772 -89.8883 nan 3.94%
0 0 -89.7885 16 -86.4772 Cuts:13 168 3.83%
0 0 -89.7614 15 -86.4772 Cuts:13 179 3.80%
0+ 0 nan nan -86.7401 -89.7614 nan 3.48%
0 0 -89.7572 15 -86.7401 LiftProj:8 183 3.48%
0 0 -89.7027 14 -86.7401 LiftProj:7 191 3.42%
0 0 -89.6965 12 -86.7401 LiftProj:6 197 3.41%
0 2 -89.5348 9 -86.7401 -89.5148 197 3.20%
CPXPARAM_MIP_Cuts_Gomory-Disjunctive-LiftProj:Gomory 7
CPXPARAM_MIP_Cuts_Gomory-Disjunctive-LiftProj:Disjunctive 7
CPXPARAM_MIP_Cuts_Gomory-Disjunctive-LiftProj:LiftProj 0
1
Node Left Objective IInf Best_Integer Best_Bound ItCnt Gap
0+ 0 nan nan 17807.5550 -1780.7555 nan 110.00%
0+ 0 nan nan -246.6070 -1780.7555 nan 622.10%
0 0 -451.0443 22 -246.6070 -451.0443 124 82.90%
0+ 0 nan nan -437.4023 -451.0443 nan 3.12%
0 0 -450.3580 18 -437.4023 Cuts:25 143 2.96%
0+ 0 nan nan -439.5105 -450.3580 nan 2.47%
0 0 -449.9487 17 -439.5105 Cuts:17 160 2.37%
0+ 0 nan nan -440.9523 -449.9487 nan 2.04%
0 0 -449.7878 22 -440.9523 Cuts:18 196 2.00%
0 0 -449.6773 23 -440.9523 Cuts:24 223 1.98%
0 0 -449.6372 24 -440.9523 Cuts:28 241 1.97%
0 0 -449.6368 25 -440.9523 LiftProj:17 249 1.97%
0+ 0 nan nan -442.5241 -449.6368 nan 1.61%
0 0 -449.6174 26 -442.5241 Cuts:14 272 1.60%
0+ 0 nan nan -442.9897 -449.6174 nan 1.50%
0 2 -449.6174 26 -442.9897 -449.5683 272 1.49%
CPXPARAM_MIP_Cuts_Gomory-Disjunctive-LiftProj:Gomory 9
CPXPARAM_MIP_Cuts_Gomory-Disjunctive-LiftProj:Disjunctive 6
CPXPARAM_MIP_Cuts_Gomory-Disjunctive-LiftProj:LiftProj 0
2
Node Left Objective IInf Best_Integer Best_Bound ItCnt Gap
0+ 0 nan nan 21992.9672 -2199.2967 nan 110.00%
0+ 0 nan nan -144.9985 -2199.2967 nan ---
0 0 cutoff -144.9985 -144.9985 77 0.00%
0 0 cutoff -144.9985 -144.9985 77 0.00% 0
CPXPARAM_MIP_Cuts_Gomory-Disjunctive-LiftProj:Gomory 0
CPXPARAM_MIP_Cuts_Gomory-Disjunctive-LiftProj:Disjunctive 0
CPXPARAM_MIP_Cuts_Gomory-Disjunctive-LiftProj:LiftProj 0
3
Node Left Objective IInf Best_Integer Best_Bound ItCnt Gap
0+ 0 nan nan 15130.5599 -1513.0560 nan 110.00%
0+ 0 nan nan -319.1991 -1513.0560 nan 374.02%
0 0 -373.2689 13 -319.1991 -373.2689 81 16.94%
0+ 0 nan nan -322.8337 -373.2689 nan 15.62%
0 0 -373.2689 11 -322.8337 Cuts:8 99 15.62%
0 0 -373.1727 18 -322.8337 Cuts:15 112 15.59%
0 0 -373.1021 19 -322.8337 Cuts:9 121 15.57%
0 0 -373.0323 19 -322.8337 Cuts:9 136 15.55%
0 0 -372.9833 18 -322.8337 Cuts:6 143 15.53%
0 0 -372.9606 17 -322.8337 Cuts:7 151 15.53%
0 0 -372.9534 19 -322.8337 LiftProj:2 154 15.52%
0 0 -372.9129 21 -322.8337 LiftProj:3 165 15.51%
0 0 -372.9036 20 -322.8337 LiftProj:1 167 15.51%
0+ 0 nan nan -370.3112 -372.9036 nan 0.70%
0 2 -372.6427 3 -370.3112 -372.5465 190 0.60%
CPXPARAM_MIP_Cuts_Gomory-Disjunctive-LiftProj:Gomory 4
CPXPARAM_MIP_Cuts_Gomory-Disjunctive-LiftProj:Disjunctive 12
CPXPARAM_MIP_Cuts_Gomory-Disjunctive-LiftProj:LiftProj 0
4
Node Left Objective IInf Best_Integer Best_Bound ItCnt Gap
0+ 0 nan nan 17229.3640 -1722.9364 nan 110.00%
0+ 0 nan nan -67.4145 -1722.9364 nan ---
0 0 -89.1646 11 -67.4145 -89.1646 97 32.26%
0 0 -88.4817 11 -67.4145 Cuts:18 109 31.25%
0+ 0 nan nan -85.5988 -88.4817 nan 3.37%
0 0 -88.2927 9 -85.5988 Cuts:12 117 3.15%
0 0 -88.2210 9 -85.5988 Cuts:13 125 3.06%
0 0 -88.1614 10 -85.5988 Cuts:13 138 2.99%
0 0 -87.9904 10 -85.5988 Cuts:13 153 2.79%
0 0 -87.7833 7 -85.5988 Cuts:6 162 2.55%
0 0 -87.7382 8 -85.5988 LiftProj:6 171 2.50%
0 0 -87.7273 8 -85.5988 Cuts:6 178 2.49%
0 0 -87.7133 9 -85.5988 LiftProj:6 184 2.47%
0 0 -87.6962 9 -85.5988 LiftProj:6 190 2.45%
0 0 -87.6148 10 -85.5988 LiftProj:6 196 2.36%
0 0 -87.5943 10 -85.5988 LiftProj:7 203 2.33%
0 0 -87.4364 11 -85.5988 LiftProj:6 221 2.15%
0 0 -87.2217 11 -85.5988 Cuts:11 230 1.90%
0 0 -87.1671 11 -85.5988 LiftProj:7 239 1.83%
0 0 -87.0424 10 -85.5988 Cuts:10 249 1.69%
0 0 -86.8868 10 -85.5988 Cuts:13 262 1.50%
0 0 -86.8538 10 -85.5988 LiftProj:6 271 1.47%
0 0 -86.8441 9 -85.5988 Cuts:7 277 1.45%
0 0 -86.8084 10 -85.5988 Cuts:7 284 1.41%
0 0 -86.6827 10 -85.5988 LiftProj:5 294 1.27%
0 0 -86.6614 11 -85.5988 LiftProj:8 299 1.24%
0 0 -86.5781 10 -85.5988 LiftProj:5 308 1.14%
0 0 -86.5704 10 -85.5988 LiftProj:5 313 1.14%
0 2 -86.1638 2 -85.5988 -86.0970 313 0.58%
CPXPARAM_MIP_Cuts_Gomory-Disjunctive-LiftProj:Gomory 15
CPXPARAM_MIP_Cuts_Gomory-Disjunctive-LiftProj:Disjunctive 0
CPXPARAM_MIP_Cuts_Gomory-Disjunctive-LiftProj:LiftProj 0
5
Node Left Objective IInf Best_Integer Best_Bound ItCnt Gap
0+ 0 nan nan 19297.4075 -1929.7408 nan 110.00%
0+ 0 nan nan -216.7443 -1929.7408 nan 790.33%
0 0 -495.8139 18 -216.7443 -495.8139 104 128.76%
0+ 0 nan nan -360.6431 -495.8139 nan 37.48%
0 0 -495.2407 22 -360.6431 Cuts:25 123 37.32%
0+ 0 nan nan -363.5780 -495.2407 nan 36.21%
0 0 -495.1431 25 -363.5780 Cuts:25 141 36.19%
0 0 -494.9514 27 -363.5780 Cuts:22 161 36.13%
0 0 -494.6882 26 -363.5780 Cuts:15 180 36.06%
0 0 -494.5423 26 -363.5780 Cuts:15 191 36.02%
0 0 -494.4920 24 -363.5780 Cuts:14 202 36.01%
0 0 -494.4080 27 -363.5780 LiftProj:16 213 35.98%
0 0 -494.3511 27 -363.5780 Cuts:21 224 35.97%
0 0 -494.2840 30 -363.5780 LiftProj:20 234 35.95%
0 0 -494.1204 28 -363.5780 LiftProj:12 249 35.90%
0 0 -493.9168 28 -363.5780 LiftProj:21 273 35.85%
0 0 -493.7819 30 -363.5780 LiftProj:19 290 35.81%
0 0 -493.5381 29 -363.5780 LiftProj:21 309 35.74%
0 0 -493.3863 28 -363.5780 LiftProj:21 328 35.70%
0 0 -493.3059 29 -363.5780 LiftProj:17 347 35.68%
0 0 -493.2153 31 -363.5780 LiftProj:16 363 35.66%
0 0 -493.1180 31 -363.5780 LiftProj:19 374 35.63%
0 0 -492.8766 31 -363.5780 LiftProj:15 401 35.56%
0 0 -492.8363 32 -363.5780 LiftProj:17 413 35.55%
0 0 -492.7757 33 -363.5780 LiftProj:14 423 35.54%
0+ 0 nan nan -481.1687 -492.7757 nan 2.41%
0+ 0 nan nan -483.8191 -492.7757 nan 1.85%
0 2 -492.7757 33 -483.8191 -492.7438 423 1.84%
CPXPARAM_MIP_Cuts_Gomory-Disjunctive-LiftProj:Gomory 25
CPXPARAM_MIP_Cuts_Gomory-Disjunctive-LiftProj:Disjunctive 1
CPXPARAM_MIP_Cuts_Gomory-Disjunctive-LiftProj:LiftProj 0
6
Node Left Objective IInf Best_Integer Best_Bound ItCnt Gap
0+ 0 nan nan 17283.6857 -1728.3686 nan 110.00%
0+ 0 nan nan -89.3561 -1728.3686 nan ---
0 0 -92.8995 6 -89.3561 -92.8995 83 3.97%
0 0 -92.8995 2 -89.3561 Cuts:7 86 3.97%
0+ 0 nan nan -92.7479 -92.8995 nan 0.16%
0 0 -92.8885 11 -92.7479 Fract:1 98 0.15%
0+ 0 nan nan -92.8162 -92.8885 nan 0.08%
0 0 -92.8540 2 -92.8162 Fract:1 112 0.04%
0 0 -92.8463 2 -92.8162 Fract:1 119 0.03%
0 0 -92.8323 4 -92.8162 Cuts:2 125 0.02%
0 0 cutoff -92.8162 -92.8323 131 0.02% 0
CPXPARAM_MIP_Cuts_Gomory-Disjunctive-LiftProj:Gomory 1
CPXPARAM_MIP_Cuts_Gomory-Disjunctive-LiftProj:Disjunctive 4
CPXPARAM_MIP_Cuts_Gomory-Disjunctive-LiftProj:LiftProj 0
7
Node Left Objective IInf Best_Integer Best_Bound ItCnt Gap
0+ 0 nan nan 18737.7240 -1873.9213 nan 110.00%
0+ 0 nan nan -349.2878 -1873.9213 nan 436.50%
0 0 -476.7132 19 -349.2878 -476.7132 92 36.48%
0+ 0 nan nan -351.7851 -476.7132 nan 35.51%
0 0 -476.0450 19 -351.7851 Cuts:16 122 35.32%
0 0 -475.5783 23 -351.7851 Cuts:16 138 35.19%
0 0 -475.4616 22 -351.7851 Cuts:10 150 35.16%
0 0 -475.3820 23 -351.7851 Cuts:9 162 35.13%
0 0 -475.3543 23 -351.7851 Cuts:13 171 35.13%
0 0 -475.3224 26 -351.7851 LiftProj:10 186 35.12%
0 0 -475.1774 26 -351.7851 Cuts:12 202 35.08%
0 0 -475.1070 26 -351.7851 LiftProj:13 215 35.06%
0 0 -474.9123 25 -351.7851 LiftProj:10 239 35.00%
0 0 -474.8774 24 -351.7851 LiftProj:9 243 34.99%
0 0 -474.7131 22 -351.7851 LiftProj:8 256 34.94%
0 0 -474.6426 23 -351.7851 Cuts:8 265 34.92%
0 0 -474.6145 23 -351.7851 LiftProj:10 279 34.92%
0+ 0 nan nan -469.6497 -474.6145 nan 1.06%
0+ 0 nan nan -470.1406 -474.6145 nan 0.95%
0 2 -474.6145 23 -470.1406 -474.6067 279 0.95%
CPXPARAM_MIP_Cuts_Gomory-Disjunctive-LiftProj:Gomory 16
CPXPARAM_MIP_Cuts_Gomory-Disjunctive-LiftProj:Disjunctive 5
CPXPARAM_MIP_Cuts_Gomory-Disjunctive-LiftProj:LiftProj 0
8
Node Left Objective IInf Best_Integer Best_Bound ItCnt Gap
0+ 0 nan nan 20324.0135 -2032.4014 nan 110.00%
0+ 0 nan nan -89.4132 -2032.4014 nan ---
0 0 -103.1383 11 -89.4132 -103.1383 78 15.35%
0 0 -102.3893 7 -89.4132 Cuts:18 98 14.51%
0+ 0 nan nan -100.8155 -102.3893 nan 1.56%
0 0 -102.3368 10 -100.8155 Cuts:10 108 1.51%
0+ 0 nan nan -102.0140 -102.3368 nan 0.32%
0 0 -102.3182 8 -102.0140 Cuts:5 115 0.30%
0 0 -102.3053 6 -102.0140 Cuts:4 122 0.29%
0 0 -102.2802 6 -102.0140 Cuts:6 134 0.26%
0 2 -102.2033 2 -102.0140 -102.1658 134 0.15%
CPXPARAM_MIP_Cuts_Gomory-Disjunctive-LiftProj:Gomory 1
CPXPARAM_MIP_Cuts_Gomory-Disjunctive-LiftProj:Disjunctive 4
CPXPARAM_MIP_Cuts_Gomory-Disjunctive-LiftProj:LiftProj 0
9
Node Left Objective IInf Best_Integer Best_Bound ItCnt Gap
0+ 0 nan nan 19574.3912 -1957.4391 nan 110.00%
0+ 0 nan nan -340.7562 -1957.4391 nan 474.44%
0 0 -481.4397 15 -340.7562 -481.4397 75 41.29%
0+ 0 nan nan -474.2321 -481.4397 nan 1.52%
0 0 -480.6119 17 -474.2321 Cuts:21 93 1.35%
0 0 -480.1333 14 -474.2321 Cuts:21 117 1.24%
0 0 -479.9719 18 -474.2321 Cuts:19 134 1.21%
0 0 -479.8899 21 -474.2321 Cuts:17 148 1.19%
0 0 -479.6989 21 -474.2321 Cuts:17 162 1.15%
0 0 -479.6379 20 -474.2321 LiftProj:15 179 1.14%
0 0 -479.6332 20 -474.2321 Cuts:17 188 1.14%
0 0 -479.6266 20 -474.2321 LiftProj:10 200 1.14%
0 2 -479.6266 17 -474.2321 -479.5762 200 1.13%
CPXPARAM_MIP_Cuts_Gomory-Disjunctive-LiftProj:Gomory 6
CPXPARAM_MIP_Cuts_Gomory-Disjunctive-LiftProj:Disjunctive 3
CPXPARAM_MIP_Cuts_Gomory-Disjunctive-LiftProj:LiftProj 0
10
Node Left Objective IInf Best_Integer Best_Bound ItCnt Gap
0+ 0 nan nan 27187.3215 -2718.7321 nan 110.00%
0+ 0 nan nan 10.9576 -2718.7321 nan ---
0 0 -173.4759 5 10.9576 -173.4759 75 ---
0+ 0 nan nan 7.7729 -173.4759 nan ---
0+ 0 nan nan -171.3795 -173.4759 nan 1.22%
0 0 -173.4759 3 -171.3795 Cuts:10 81 1.22%
0 0 -173.4759 8 -171.3795 Cuts:6 92 1.22%
0 0 -173.4759 4 -171.3795 Cuts:15 102 1.22%
0 0 -173.4759 4 -171.3795 Cuts:7 108 1.22%
0 2 -173.4759 4 -171.3795 -173.4759 108 1.22%
CPXPARAM_MIP_Cuts_Gomory-Disjunctive-LiftProj:Gomory 11
CPXPARAM_MIP_Cuts_Gomory-Disjunctive-LiftProj:Disjunctive 10
CPXPARAM_MIP_Cuts_Gomory-Disjunctive-LiftProj:LiftProj 10
11
Node Left Objective IInf Best_Integer Best_Bound ItCnt Gap
0+ 0 nan nan 22470.7077 -2247.0708 nan 110.00%
0+ 0 nan nan -339.2451 -2247.0708 nan 562.37%
0 0 -573.6242 10 -339.2451 -573.6242 79 69.09%
0+ 0 nan nan -570.2156 -573.6242 nan 0.60%
0 0 -573.6242 13 -570.2156 Cuts:6 93 0.60%
0 0 -573.4054 20 -570.2156 Cuts:17 118 0.56%
0 0 -573.2257 15 -570.2156 Cuts:14 139 0.53%
0+ 0 nan nan -570.2302 -573.2257 nan 0.53%
0 0 -573.1141 19 -570.2302 Cuts:12 152 0.51%
0+ 0 nan nan -570.3419 -573.1141 nan 0.49%
0 0 -573.0112 22 -570.3419 Cuts:12 160 0.47%
0 0 -572.9289 22 -570.3419 Cuts:14 178 0.45%
0 0 -572.8755 22 -570.3419 Cuts:16 198 0.44%
0 0 -572.7748 23 -570.3419 Cuts:16 217 0.43%
0 0 -572.6568 24 -570.3419 Cuts:13 236 0.41%
0 0 -572.4991 23 -570.3419 LiftProj:12 253 0.38%
0 0 -572.2541 22 -570.3419 LiftProj:11 268 0.34%
0 0 -572.1536 24 -570.3419 LiftProj:7 284 0.32%
0 0 -572.0992 21 -570.3419 LiftProj:7 293 0.31%
0+ 0 nan nan -570.3419 -572.0992 nan 0.31%
0 0 -571.4023 6 -570.3419 -571.4023 354 0.19%
0 0 -571.2082 6 -570.3419 Cuts:7 363 0.15%
0 0 -570.9927 4 -570.3419 Cuts:13 380 0.11%
0 0 -570.9709 6 -570.3419 Cuts:7 386 0.11%
0 0 -570.9184 7 -570.3419 Cuts:5 397 0.10%
0 0 -570.8779 6 -570.3419 Cuts:11 406 0.09%
0 0 -570.8357 7 -570.3419 Cuts:6 412 0.09%
0 0 -570.7479 6 -570.3419 Cuts:6 421 0.07%
0 0 -570.6558 4 -570.3419 Cuts:7 429 0.06%
0 0 -570.6170 7 -570.3419 Cuts:5 438 0.05%
0 0 -570.5679 9 -570.3419 Cuts:16 451 0.04%
0 2 -570.4880 2 -570.3419 -570.3911 451 0.01%
CPXPARAM_MIP_Cuts_Gomory-Disjunctive-LiftProj:Gomory 12
CPXPARAM_MIP_Cuts_Gomory-Disjunctive-LiftProj:Disjunctive 3
CPXPARAM_MIP_Cuts_Gomory-Disjunctive-LiftProj:LiftProj 0
12
Node Left Objective IInf Best_Integer Best_Bound ItCnt Gap
0+ 0 nan nan 21290.0070 -2129.0007 nan 110.00%
0+ 0 nan nan -108.2542 -2129.0007 nan ---
0 0 -125.5769 9 -108.2542 -125.5769 93 16.00%
0+ 0 nan nan -118.3639 -125.5769 nan 6.09%
0 0 -124.7935 10 -118.3639 Cuts:12 108 5.43%
0 0 -124.5016 12 -118.3639 Cuts:11 120 5.19%
0 0 -124.3528 13 -118.3639 Cuts:13 135 5.06%
0 0 -124.0468 13 -118.3639 Cuts:14 150 4.80%
0 0 -123.7421 13 -118.3639 Cuts:21 172 4.54%
0 0 -123.6939 13 -118.3639 Cuts:18 182 4.50%
0+ 0 nan nan -121.2111 -123.6939 nan 2.05%
0 0 -123.6682 11 -121.2111 Cuts:12 193 2.03%
0 0 -123.5394 12 -121.2111 Cuts:10 211 1.92%
0 0 -123.4932 13 -121.2111 LiftProj:10 221 1.88%
0 0 -123.3512 13 -121.2111 LiftProj:9 234 1.77%
0 0 -123.3149 11 -121.2111 LiftProj:6 241 1.74%
0 0 -123.2440 12 -121.2111 LiftProj:10 244 1.68%
0 0 -123.1919 13 -121.2111 LiftProj:12 251 1.63%
0 0 -123.1031 14 -121.2111 LiftProj:9 260 1.56%
0 0 -123.0622 12 -121.2111 LiftProj:7 265 1.53%
0 0 -123.0449 16 -121.2111 LiftProj:5 274 1.51%
0 0 -123.0321 17 -121.2111 LiftProj:6 279 1.50%
0 2 -122.5476 6 -121.2111 -122.4975 279 1.06%
CPXPARAM_MIP_Cuts_Gomory-Disjunctive-LiftProj:Gomory 12
CPXPARAM_MIP_Cuts_Gomory-Disjunctive-LiftProj:Disjunctive 0
CPXPARAM_MIP_Cuts_Gomory-Disjunctive-LiftProj:LiftProj 0
13
Node Left Objective IInf Best_Integer Best_Bound ItCnt Gap
0+ 0 nan nan 18711.1828 -1871.1183 nan 110.00%
0+ 0 nan nan -86.7463 -1871.1183 nan ---
0 0 -468.4244 16 -86.7463 -468.4244 90 439.99%
0+ 0 nan nan -462.1230 -468.4244 nan 1.36%
0 0 -468.0088 21 -462.1230 Cuts:22 109 1.27%
0 0 -467.5429 21 -462.1230 Cuts:26 128 1.17%
0 0 -467.3468 18 -462.1230 Cuts:24 153 1.13%
0 0 -467.3389 20 -462.1230 Cuts:20 166 1.13%
0+ 0 nan nan -462.3653 -467.3389 nan 1.08%
0 0 -467.3319 13 -462.3653 Cuts:16 171 1.07%
0 0 -467.3319 19 -462.3653 LiftProj:10 184 1.07%
0 2 -467.3319 17 -462.3653 -467.3295 184 1.07%
CPXPARAM_MIP_Cuts_Gomory-Disjunctive-LiftProj:Gomory 3
CPXPARAM_MIP_Cuts_Gomory-Disjunctive-LiftProj:Disjunctive 6
CPXPARAM_MIP_Cuts_Gomory-Disjunctive-LiftProj:LiftProj 0
14
Node Left Objective IInf Best_Integer Best_Bound ItCnt Gap
0+ 0 nan nan 22739.1838 -2273.9184 nan 110.00%
0+ 0 nan nan -144.2844 -2273.9184 nan ---
0 0 -146.9071 10 -144.2844 -146.9071 80 1.82%
0 0 -146.8581 7 -144.2844 Cuts:8 86 1.78%
0 0 -146.7176 8 -144.2844 Cuts:14 100 1.69%
0 0 -146.7066 15 -144.2844 Cuts:9 115 1.68%
0 0 -146.7066 9 -144.2844 Cuts:10 126 1.68%
0+ 0 nan nan -145.9432 -146.7066 nan 0.52%
0 0 -146.7066 7 -145.9432 Cuts:2 129 0.52%
0 0 -146.7066 6 -145.9432 Cuts:3 130 0.52%
0+ 0 nan nan -146.6955 -146.7066 nan 0.01%
CPXPARAM_MIP_Cuts_Gomory-Disjunctive-LiftProj:Gomory 4
CPXPARAM_MIP_Cuts_Gomory-Disjunctive-LiftProj:Disjunctive 12
CPXPARAM_MIP_Cuts_Gomory-Disjunctive-LiftProj:LiftProj 0
15
Node Left Objective IInf Best_Integer Best_Bound ItCnt Gap
0+ 0 nan nan 20293.1236 -2029.3124 nan 110.00%
0+ 0 nan nan -243.7454 -2029.3124 nan 732.55%
0 0 -518.7322 13 -243.7454 -518.7322 83 112.82%
0+ 0 nan nan -315.8010 -518.7322 nan 64.26%
0+ 0 nan nan -450.6273 -518.7322 nan 15.11%
0 0 -518.6328 19 -450.6273 Cuts:25 112 15.09%
0 0 -518.4562 22 -450.6273 Cuts:13 127 15.05%
0 0 -518.2850 21 -450.6273 Cuts:14 140 15.01%
0 0 -518.2245 22 -450.6273 Cuts:10 150 15.00%
0 0 -518.1217 20 -450.6273 Cuts:10 162 14.98%
0 0 -517.9596 23 -450.6273 Cuts:9 177 14.94%
0 0 -517.8927 23 -450.6273 Cuts:15 186 14.93%
0 0 -517.8260 23 -450.6273 Cuts:6 194 14.91%
0 0 -517.8030 24 -450.6273 LiftProj:2 197 14.91%
0 0 -517.7403 23 -450.6273 LiftProj:4 200 14.89%
0 0 -517.6974 22 -450.6273 Cuts:13 212 14.88%
0+ 0 nan nan -513.1621 -517.6974 nan 0.88%
0+ 0 nan nan -513.9352 -517.6974 nan 0.73%
0 2 -517.1832 9 -513.9352 -517.1523 212 0.63%
CPXPARAM_MIP_Cuts_Gomory-Disjunctive-LiftProj:Gomory 11
CPXPARAM_MIP_Cuts_Gomory-Disjunctive-LiftProj:Disjunctive 8
CPXPARAM_MIP_Cuts_Gomory-Disjunctive-LiftProj:LiftProj 0
16
Node Left Objective IInf Best_Integer Best_Bound ItCnt Gap
0+ 0 nan nan 21872.1954 -2187.2195 nan 110.00%
0+ 0 nan nan -112.2220 -2187.2195 nan ---
0 0 -126.4787 11 -112.2220 -126.4787 89 12.70%
0 0 -126.1346 12 -112.2220 Cuts:19 102 12.40%
0+ 0 nan nan -124.3570 -126.1346 nan 1.43%
0 0 -126.0664 14 -124.3570 Cuts:10 115 1.37%
0 0 -125.8629 15 -124.3570 Cuts:13 127 1.21%
0 0 -125.8052 13 -124.3570 Cuts:13 134 1.16%
0 0 -125.7736 14 -124.3570 Cuts:14 144 1.14%
0 0 -125.7697 17 -124.3570 Cuts:8 151 1.14%
0 0 -125.7613 15 -124.3570 LiftProj:5 161 1.13%
0 2 -125.7613 14 -124.3570 -125.7613 161 1.13%
CPXPARAM_MIP_Cuts_Gomory-Disjunctive-LiftProj:Gomory 5
CPXPARAM_MIP_Cuts_Gomory-Disjunctive-LiftProj:Disjunctive 5
CPXPARAM_MIP_Cuts_Gomory-Disjunctive-LiftProj:LiftProj 0
17
Node Left Objective IInf Best_Integer Best_Bound ItCnt Gap
0+ 0 nan nan 16639.6111 -1663.9611 nan 110.00%
0+ 0 nan nan -399.5270 -1663.9611 nan 316.48%
0 0 -404.1656 14 -399.5270 -404.1656 83 1.16%
0 0 -403.4597 14 -399.5270 Cuts:18 110 0.98%
0 0 -403.2567 19 -399.5270 Cuts:16 135 0.93%
0 0 -403.2229 18 -399.5270 Cuts:18 153 0.93%
0 0 -403.2004 21 -399.5270 Cuts:18 166 0.92%
0+ 0 nan nan -400.1632 -403.2004 nan 0.76%
0 0 -403.1343 21 -400.1632 Cuts:20 182 0.74%
0+ 0 nan nan -400.5279 -403.1343 nan 0.65%
0 0 -403.1206 22 -400.5279 LiftProj:12 191 0.65%
0 0 -403.0748 19 -400.5279 Cuts:14 210 0.64%
0 0 -403.0517 19 -400.5279 LiftProj:11 226 0.63%
0 2 -403.0517 12 -400.5279 -403.0129 226 0.62%
CPXPARAM_MIP_Cuts_Gomory-Disjunctive-LiftProj:Gomory 7
CPXPARAM_MIP_Cuts_Gomory-Disjunctive-LiftProj:Disjunctive 3
CPXPARAM_MIP_Cuts_Gomory-Disjunctive-LiftProj:LiftProj 0
18
Node Left Objective IInf Best_Integer Best_Bound ItCnt Gap
0+ 0 nan nan 18821.9021 -1882.1902 nan 110.00%
0+ 0 nan nan -97.2991 -1882.1902 nan ---
0 0 -99.0172 8 -97.2991 -99.0172 77 1.77%
0 0 -99.0172 6 -97.2991 Cuts:15 90 1.77%
0 0 -99.0161 13 -97.2991 Cuts:8 99 1.76%
0 0 -99.0035 6 -97.2991 Cuts:6 106 1.75%
0+ 0 nan nan -98.9995 -99.0035 nan 0.00%
CPXPARAM_MIP_Cuts_Gomory-Disjunctive-LiftProj:Gomory 6
CPXPARAM_MIP_Cuts_Gomory-Disjunctive-LiftProj:Disjunctive 10
CPXPARAM_MIP_Cuts_Gomory-Disjunctive-LiftProj:LiftProj 0
19
Node Left Objective IInf Best_Integer Best_Bound ItCnt Gap
0+ 0 nan nan 19012.1137 -1901.2740 nan 110.00%
0+ 0 nan nan -411.3325 -1901.2740 nan 362.22%
0 0 -474.7865 8 -411.3325 -474.7865 76 15.43%
0+ 0 nan nan -411.4107 -474.7865 nan 15.40%
0+ 0 nan nan -472.5175 -474.7865 nan 0.48%
0 0 -474.7865 5 -472.5175 Cuts:8 90 0.48%
0+ 0 nan nan -473.4153 -474.7865 nan 0.29%
0 0 -474.7865 5 -473.4153 Cuts:5 99 0.29%
0 0 -474.7815 6 -473.4153 Cuts:5 104 0.29%
0+ 0 nan nan -474.7791 -474.7815 nan 0.00%
CPXPARAM_MIP_Cuts_Gomory-Disjunctive-LiftProj:Gomory 0
CPXPARAM_MIP_Cuts_Gomory-Disjunctive-LiftProj:Disjunctive 11
CPXPARAM_MIP_Cuts_Gomory-Disjunctive-LiftProj:LiftProj 0
20
Node Left Objective IInf Best_Integer Best_Bound ItCnt Gap
0+ 0 nan nan 15115.0246 -1511.5025 nan 110.00%
0+ 0 nan nan -66.4447 -1511.5025 nan ---
0 0 -90.2455 12 -66.4447 -90.2455 91 35.82%
0 0 -89.5556 12 -66.4447 Cuts:15 103 34.78%
0+ 0 nan nan -88.1244 -89.5556 nan 1.62%
0 0 -89.1130 11 -88.1244 Cuts:10 113 1.12%
0 0 -88.8891 13 -88.1244 Cuts:14 123 0.87%
0 0 -88.7947 12 -88.1244 Cuts:4 135 0.76%
0 0 -88.6669 10 -88.1244 Cuts:3 145 0.62%
0 0 -88.6317 10 -88.1244 Cuts:7 159 0.58%
0 0 -88.5390 8 -88.1244 Cuts:3 172 0.47%
0 0 cutoff -88.1244 -88.5390 172 0.47% 0
CPXPARAM_MIP_Cuts_Gomory-Disjunctive-LiftProj:Gomory 2
CPXPARAM_MIP_Cuts_Gomory-Disjunctive-LiftProj:Disjunctive 5
CPXPARAM_MIP_Cuts_Gomory-Disjunctive-LiftProj:LiftProj 0
21
Node Left Objective IInf Best_Integer Best_Bound ItCnt Gap
0+ 0 nan nan 15333.4248 -1533.3425 nan 110.00%
0+ 0 nan nan -221.9629 -1533.3425 nan 590.81%
0 0 -397.2126 26 -221.9629 -397.2126 110 78.95%
0+ 0 nan nan -235.8252 -397.2126 nan 68.44%
0 0 -395.6319 28 -235.8252 Cuts:9 124 67.76%
0 0 -394.8524 26 -235.8252 Cuts:15 135 67.43%
0 0 -394.1103 29 -235.8252 Cuts:27 150 67.12%
0+ 0 nan nan -237.4624 -394.1103 nan 65.97%
0 0 -393.9121 28 -237.4624 Cuts:22 169 65.88%
0+ 0 nan nan -287.3368 -393.9121 nan 37.09%
0 0 -393.7540 30 -287.3368 Cuts:22 187 37.04%
0+ 0 nan nan -288.4415 -393.7540 nan 36.51%
0 0 -393.6015 30 -288.4415 Cuts:23 210 36.46%
0 0 -393.5100 32 -288.4415 LiftProj:19 220 36.43%
0 0 -393.4000 32 -288.4415 LiftProj:17 237 36.39%
0 0 -393.1917 30 -288.4415 LiftProj:16 254 36.32%
0 0 -393.0285 31 -288.4415 LiftProj:21 278 36.26%
0 0 -392.9742 32 -288.4415 Cuts:19 286 36.24%
0 0 -392.8547 33 -288.4415 LiftProj:22 303 36.20%
0 0 -392.7678 32 -288.4415 LiftProj:18 320 36.17%
0 0 -392.5916 32 -288.4415 Cuts:27 339 36.11%
0 0 -392.4821 34 -288.4415 LiftProj:19 351 36.07%
0 0 -392.0370 33 -288.4415 LiftProj:18 388 35.92%
0 0 -391.9079 32 -288.4415 LiftProj:16 404 35.87%
0 0 -391.8634 34 -288.4415 Cuts:13 418 35.86%
0 0 -391.7926 34 -288.4415 LiftProj:16 432 35.83%
0+ 0 nan nan -384.1793 -391.7926 nan 1.98%
0 2 -391.7926 34 -384.1793 -391.7392 432 1.97%
CPXPARAM_MIP_Cuts_Gomory-Disjunctive-LiftProj:Gomory 29
CPXPARAM_MIP_Cuts_Gomory-Disjunctive-LiftProj:Disjunctive 0
CPXPARAM_MIP_Cuts_Gomory-Disjunctive-LiftProj:LiftProj 0
22
Node Left Objective IInf Best_Integer Best_Bound ItCnt Gap
0+ 0 nan nan 15579.5689 -1557.9569 nan 110.00%
0+ 0 nan nan -75.9857 -1557.9569 nan ---
0 0 -96.9770 4 -75.9857 -96.9770 80 27.63%
0+ 0 nan nan -96.9770 -96.9770 nan 0.00%
0 0 cutoff -96.9770 -96.9770 80 0.00% 0
CPXPARAM_MIP_Cuts_Gomory-Disjunctive-LiftProj:Gomory 0
CPXPARAM_MIP_Cuts_Gomory-Disjunctive-LiftProj:Disjunctive 0
CPXPARAM_MIP_Cuts_Gomory-Disjunctive-LiftProj:LiftProj 0
23
Node Left Objective IInf Best_Integer Best_Bound ItCnt Gap
0+ 0 nan nan 16097.8588 -1609.8715 nan 110.00%
0+ 0 nan nan -135.1706 -1609.8715 nan ---
0 0 -420.0439 21 -135.1706 -420.0439 92 210.75%
0+ 0 nan nan -205.3944 -420.0439 nan 104.51%
0+ 0 nan nan -308.1357 -420.0439 nan 36.32%
0 0 -418.6322 23 -308.1357 Cuts:6 105 35.86%
0+ 0 nan nan -308.2577 -418.6322 nan 35.81%
0 0 -417.3315 20 -308.2577 Cuts:11 116 35.38%
0 0 -416.8904 22 -308.2577 Cuts:16 130 35.24%
0 0 -416.7324 23 -308.2577 Cuts:15 142 35.19%
0 0 -416.5583 23 -308.2577 Cuts:14 157 35.13%
0 0 -416.0090 24 -308.2577 Cuts:15 173 34.95%
0 0 -415.4561 24 -308.2577 LiftProj:10 191 34.78%
0 0 -414.8468 27 -308.2577 Cuts:14 213 34.58%
0 0 -414.7313 28 -308.2577 Cuts:16 235 34.54%
0 0 -414.5726 30 -308.2577 LiftProj:19 261 34.49%
0 0 -414.3597 26 -308.2577 LiftProj:13 283 34.42%
0 0 -414.1750 32 -308.2577 LiftProj:19 315 34.36%
0 0 -414.0024 29 -308.2577 LiftProj:14 336 34.30%
0 0 -413.8898 28 -308.2577 LiftProj:16 359 34.27%
0 0 -413.7852 28 -308.2577 LiftProj:13 374 34.23%
0 0 -413.6912 28 -308.2577 LiftProj:12 392 34.20%
0 0 -413.6597 30 -308.2577 LiftProj:15 410 34.19%
0 0 -413.5198 28 -308.2577 LiftProj:14 431 34.15%
0+ 0 nan nan -358.1455 -413.5198 nan 15.46%
0 0 -413.4767 31 -358.1455 LiftProj:14 445 15.45%
0+ 0 nan nan -358.5762 -413.4767 nan 15.31%
0+ 0 nan nan -408.9864 -413.4767 nan 1.10%
0 2 -413.4767 31 -408.9864 -413.4741 445 1.10%
CPXPARAM_MIP_Cuts_Gomory-Disjunctive-LiftProj:Gomory 28
CPXPARAM_MIP_Cuts_Gomory-Disjunctive-LiftProj:Disjunctive 0
CPXPARAM_MIP_Cuts_Gomory-Disjunctive-LiftProj:LiftProj 0
24
Node Left Objective IInf Best_Integer Best_Bound ItCnt Gap
0+ 0 nan nan 18436.4445 -1843.6444 nan 110.00%
0+ 0 nan nan -94.2493 -1843.6444 nan ---
0 0 -115.3546 13 -94.2493 -115.3546 85 22.39%
0+ 0 nan nan -112.0044 -115.3546 nan 2.99%
0 0 -114.6954 7 -112.0044 Cuts:13 96 2.40%
0 0 -114.1533 9 -112.0044 Cuts:10 108 1.92%
0 0 -114.0270 7 -112.0044 Cuts:11 119 1.81%
0 0 -113.8266 8 -112.0044 Cuts:8 129 1.63%
0 0 -113.7314 8 -112.0044 Cuts:10 143 1.54%
0 0 -113.6987 9 -112.0044 LiftProj:11 152 1.51%
0 0 -113.6276 9 -112.0044 LiftProj:7 156 1.45%
0 0 -113.4887 8 -112.0044 LiftProj:5 170 1.33%
0 0 -113.3523 9 -112.0044 Cuts:10 178 1.20%
0 0 -113.2902 9 -112.0044 LiftProj:5 187 1.15%
0 0 -113.1137 9 -112.0044 LiftProj:6 204 0.99%
0 0 -113.0490 8 -112.0044 LiftProj:6 216 0.93%
0 0 -112.8872 7 -112.0044 LiftProj:5 229 0.79%
0 0 -112.7645 8 -112.0044 LiftProj:4 240 0.68%
0 0 -112.7555 8 -112.0044 LiftProj:5 244 0.67%
0 0 -112.7492 9 -112.0044 LiftProj:5 245 0.67%
0 1 -112.3202 4 -112.0044 -112.2845 245 0.25%
CPXPARAM_MIP_Cuts_Gomory-Disjunctive-LiftProj:Gomory 16
CPXPARAM_MIP_Cuts_Gomory-Disjunctive-LiftProj:Disjunctive 0
CPXPARAM_MIP_Cuts_Gomory-Disjunctive-LiftProj:LiftProj 0
25
Node Left Objective IInf Best_Integer Best_Bound ItCnt Gap
0+ 0 nan nan 18806.7169 -1880.6717 nan 110.00%
0+ 0 nan nan -288.0183 -1880.6717 nan 552.97%
0 0 -492.8236 25 -288.0183 -492.8236 100 71.11%
0+ 0 nan nan -362.9258 -492.8236 nan 35.79%
0 0 -490.4813 26 -362.9258 Cuts:14 116 35.15%
0 0 -489.8066 28 -362.9258 Cuts:24 135 34.96%
0 0 -489.3079 30 -362.9258 Cuts:22 154 34.82%
0 0 -489.0174 29 -362.9258 Cuts:17 167 34.74%
0 0 -488.8613 29 -362.9258 Cuts:23 186 34.70%
0 0 -488.6805 29 -362.9258 LiftProj:19 204 34.65%
0 0 -488.6532 32 -362.9258 LiftProj:19 214 34.64%
0 0 -488.6302 34 -362.9258 LiftProj:18 226 34.64%
0+ 0 nan nan -475.9203 -488.6302 nan 2.67%
0+ 0 nan nan -476.0756 -488.6302 nan 2.64%
0 2 -488.6302 34 -476.0756 -488.6177 226 2.63%
CPXPARAM_MIP_Cuts_Gomory-Disjunctive-LiftProj:Gomory 10
CPXPARAM_MIP_Cuts_Gomory-Disjunctive-LiftProj:Disjunctive 6
CPXPARAM_MIP_Cuts_Gomory-Disjunctive-LiftProj:LiftProj 0
26
Node Left Objective IInf Best_Integer Best_Bound ItCnt Gap
0+ 0 nan nan 18555.8907 -1855.7233 nan 110.00%
0+ 0 nan nan -104.0034 -1855.7233 nan ---
0 0 -115.9815 5 -104.0034 -115.9815 67 11.52%
0+ 0 nan nan -115.9815 -115.9815 nan 0.00%
0 0 cutoff -115.9815 -115.9815 67 0.00% 0
CPXPARAM_MIP_Cuts_Gomory-Disjunctive-LiftProj:Gomory 0
CPXPARAM_MIP_Cuts_Gomory-Disjunctive-LiftProj:Disjunctive 0
CPXPARAM_MIP_Cuts_Gomory-Disjunctive-LiftProj:LiftProj 0
27
Node Left Objective IInf Best_Integer Best_Bound ItCnt Gap
0+ 0 nan nan 17101.2086 -1710.7893 nan 110.00%
0+ 0 nan nan -257.8104 -1710.7893 nan 563.58%
0 0 -441.6815 19 -257.8104 -441.6815 93 71.32%
0+ 0 nan nan -327.4274 -441.6815 nan 34.89%
0 0 -439.8654 19 -327.4274 Cuts:9 109 34.34%
0+ 0 nan nan -327.5556 -439.8654 nan 34.29%
0 0 -439.4674 23 -327.5556 Cuts:15 127 34.17%
0 0 -438.8937 25 -327.5556 Cuts:10 159 33.99%
0+ 0 nan nan -327.6314 -438.8937 nan 33.96%
0 0 -438.8663 25 -327.6314 Cuts:9 170 33.95%
0 0 -438.6309 25 -327.6314 Cuts:15 189 33.88%
0 0 -438.4885 29 -327.6314 LiftProj:8 212 33.84%
0 0 -438.3335 23 -327.6314 LiftProj:9 238 33.79%
0 0 -437.9235 22 -327.6314 Cuts:17 257 33.66%
0 0 -437.8115 26 -327.6314 Cuts:10 272 33.63%
0 0 -437.8115 27 -327.6314 LiftProj:8 277 33.63%
0 0 -437.7323 26 -327.6314 LiftProj:7 295 33.61%
0 0 -437.7310 28 -327.6314 LiftProj:7 304 33.60%
0+ 0 nan nan -379.6018 -437.7310 nan 15.31%
0+ 0 nan nan -430.5766 -437.7310 nan 1.66%
0+ 0 nan nan -433.6102 -437.7310 nan 0.95%
0 2 -437.7310 28 -433.6102 -437.7112 304 0.95%
CPXPARAM_MIP_Cuts_Gomory-Disjunctive-LiftProj:Gomory 10
CPXPARAM_MIP_Cuts_Gomory-Disjunctive-LiftProj:Disjunctive 5
CPXPARAM_MIP_Cuts_Gomory-Disjunctive-LiftProj:LiftProj 0
28
Node Left Objective IInf Best_Integer Best_Bound ItCnt Gap
0+ 0 nan nan 23195.9038 -2319.5904 nan 110.00%
0+ 0 nan nan -104.6712 -2319.5904 nan ---
0 0 -120.0533 11 -104.6712 -120.0533 77 14.70%
0 0 -119.2753 11 -104.6712 Cuts:15 88 13.95%
0+ 0 nan nan -115.2003 -119.2753 nan 3.54%
0 0 -119.0984 10 -115.2003 Cuts:14 100 3.38%
0 0 -118.8432 10 -115.2003 Cuts:11 117 3.16%
0+ 0 nan nan -116.8709 -118.8432 nan 1.69%
0 0 -118.6652 9 -116.8709 Cuts:11 134 1.54%
0+ 0 nan nan -117.2287 -118.6652 nan 1.23%
0 0 -118.6011 9 -117.2287 Cuts:6 148 1.17%
0 0 -118.5701 10 -117.2287 LiftProj:4 155 1.14%
0 0 -118.4468 9 -117.2287 LiftProj:5 168 1.04%
0 0 -118.4292 10 -117.2287 Cuts:6 178 1.02%
0 0 -118.3470 9 -117.2287 LiftProj:6 190 0.95%
0 0 -118.3334 10 -117.2287 LiftProj:7 198 0.94%
0 0 -118.2866 10 -117.2287 LiftProj:5 205 0.90%
0 0 -118.2670 9 -117.2287 LiftProj:6 215 0.89%
0 0 -118.2662 9 -117.2287 LiftProj:5 217 0.89%
0 0 -118.2643 10 -117.2287 LiftProj:4 221 0.88%
0 2 -117.9868 4 -117.2287 -117.9706 221 0.63%
CPXPARAM_MIP_Cuts_Gomory-Disjunctive-LiftProj:Gomory 12
CPXPARAM_MIP_Cuts_Gomory-Disjunctive-LiftProj:Disjunctive 0
CPXPARAM_MIP_Cuts_Gomory-Disjunctive-LiftProj:LiftProj 0
29
Node Left Objective IInf Best_Integer Best_Bound ItCnt Gap
0+ 0 nan nan 18473.6572 -1847.3657 nan 110.00%
0+ 0 nan nan -427.6235 -1847.3657 nan 332.01%
0 0 -444.7353 17 -427.6235 -444.7353 96 4.00%
0 0 -444.1889 20 -427.6235 Cuts:15 129 3.87%
0 0 -443.8405 19 -427.6235 Cuts:22 146 3.79%
0 0 -443.6833 24 -427.6235 Cuts:16 163 3.76%
0 0 -443.6098 24 -427.6235 Cuts:19 180 3.74%
0 0 -443.4350 22 -427.6235 Cuts:14 206 3.70%
0 0 -443.2530 22 -427.6235 Cuts:12 221 3.65%
0 0 -443.2431 25 -427.6235 LiftProj:5 227 3.65%
0 0 -443.1963 24 -427.6235 LiftProj:5 234 3.64%
0 0 -443.1675 21 -427.6235 LiftProj:7 247 3.63%
0+ 0 nan nan -441.1131 -443.1675 nan 0.47%
0 2 -443.0502 6 -441.1131 -443.0037 247 0.43%
CPXPARAM_MIP_Cuts_Gomory-Disjunctive-LiftProj:Gomory 6
CPXPARAM_MIP_Cuts_Gomory-Disjunctive-LiftProj:Disjunctive 4
CPXPARAM_MIP_Cuts_Gomory-Disjunctive-LiftProj:LiftProj 0
30
Node Left Objective IInf Best_Integer Best_Bound ItCnt Gap
0+ 0 nan nan 20012.4297 -2001.2537 nan 110.00%
0+ 0 nan nan -82.7793 -2001.2537 nan ---
0 0 -93.4019 2 -82.7793 -93.4019 66 12.83%
0+ 0 nan nan -93.4019 -93.4019 nan 0.00%
CPXPARAM_MIP_Cuts_Gomory-Disjunctive-LiftProj:Gomory 0
CPXPARAM_MIP_Cuts_Gomory-Disjunctive-LiftProj:Disjunctive 0
CPXPARAM_MIP_Cuts_Gomory-Disjunctive-LiftProj:LiftProj 0
31
Node Left Objective IInf Best_Integer Best_Bound ItCnt Gap
0+ 0 nan nan 20469.5526 -2046.9553 nan 110.00%
0+ 0 nan nan -497.9458 -2046.9553 nan 311.08%
0 0 -506.7396 12 -497.9458 -506.7396 92 1.77%
0+ 0 nan nan -501.8232 -506.7396 nan 0.98%
0 0 -506.7114 5 -501.8232 Cuts:3 105 0.97%
0+ 0 nan nan -506.6867 -506.7114 nan 0.00%
CPXPARAM_MIP_Cuts_Gomory-Disjunctive-LiftProj:Gomory 0
CPXPARAM_MIP_Cuts_Gomory-Disjunctive-LiftProj:Disjunctive 2
CPXPARAM_MIP_Cuts_Gomory-Disjunctive-LiftProj:LiftProj 0
32
Node Left Objective IInf Best_Integer Best_Bound ItCnt Gap
0+ 0 nan nan 13911.0729 -1391.1073 nan 110.00%
0+ 0 nan nan -39.6136 -1391.1073 nan ---
0 0 -68.2827 6 -39.6136 -68.2827 77 72.37%
0+ 0 nan nan -65.9578 -68.2827 nan 3.52%
0 0 -66.4980 6 -65.9578 Fract:1 86 0.82%
0 0 cutoff -65.9578 99 0.00% 0 0
CPXPARAM_MIP_Cuts_Gomory-Disjunctive-LiftProj:Gomory 0
CPXPARAM_MIP_Cuts_Gomory-Disjunctive-LiftProj:Disjunctive 0
CPXPARAM_MIP_Cuts_Gomory-Disjunctive-LiftProj:LiftProj 0
33
Node Left Objective IInf Best_Integer Best_Bound ItCnt Gap
0+ 0 nan nan 16748.4512 -1674.8451 nan 110.00%
0+ 0 nan nan -180.4833 -1674.8451 nan 827.98%
0 0 -425.8102 14 -180.4833 -425.8102 120 135.93%
0+ 0 nan nan -362.2668 -425.8102 nan 17.54%
0 0 -425.0176 22 -362.2668 Cuts:16 144 17.32%
0 0 -424.4572 28 -362.2668 Cuts:31 171 17.17%
0 0 -424.4064 30 -362.2668 Cuts:21 183 17.15%
0 0 -424.1483 32 -362.2668 Cuts:16 205 17.08%
0+ 0 nan nan -363.1089 -424.1483 nan 16.81%
0 0 -423.8157 33 -363.1089 Cuts:20 229 16.72%
0 0 -423.6561 32 -363.1089 Cuts:18 243 16.67%
0 0 -423.6001 33 -363.1089 Cuts:28 253 16.66%
0+ 0 nan nan -363.6481 -423.6001 nan 16.49%
0 0 -423.5348 32 -363.6481 LiftProj:18 265 16.47%
0 0 -423.4057 30 -363.6481 LiftProj:15 276 16.43%
0 0 -423.2555 34 -363.6481 Cuts:20 286 16.39%
0 0 -423.1670 33 -363.6481 LiftProj:18 297 16.37%
0 0 -423.1327 31 -363.6481 LiftProj:20 305 16.36%
0 0 -423.0962 33 -363.6481 LiftProj:15 313 16.35%
0+ 0 nan nan -414.5337 -423.0962 nan 2.07%
0+ 0 nan nan -416.0797 -423.0962 nan 1.69%
0 2 -423.0952 32 -416.0797 -423.0040 313 1.66%
CPXPARAM_MIP_Cuts_Gomory-Disjunctive-LiftProj:Gomory 28
CPXPARAM_MIP_Cuts_Gomory-Disjunctive-LiftProj:Disjunctive 1
CPXPARAM_MIP_Cuts_Gomory-Disjunctive-LiftProj:LiftProj 0
34
Node Left Objective IInf Best_Integer Best_Bound ItCnt Gap
0+ 0 nan nan 19055.0102 -1905.5010 nan 110.00%
0+ 0 nan nan -113.0294 -1905.5010 nan ---
0 0 -121.1718 5 -113.0294 -121.1718 75 7.20%
0+ 0 nan nan -117.8797 -121.1718 nan 2.79%
0 0 -121.1718 10 -117.8797 Cuts:9 92 2.79%
0+ 0 nan nan -119.8794 -121.1718 nan 1.08%
0 0 -121.1551 11 -119.8794 Fract:3 105 1.06%
0 0 -121.0629 12 -119.8794 Cuts:8 112 0.99%
0+ 0 nan nan -120.8524 -121.0629 nan 0.17%
0 0 -120.9145 3 -120.8524 Cuts:2 126 0.05%
0+ 0 nan nan -120.8524 -120.9145 nan 0.05%
0 0 -120.9145 3 -120.8524 -120.9145 199 0.05%
0 0 cutoff -120.8524 205 0.00% 0 0
CPXPARAM_MIP_Cuts_Gomory-Disjunctive-LiftProj:Gomory 1
CPXPARAM_MIP_Cuts_Gomory-Disjunctive-LiftProj:Disjunctive 2
CPXPARAM_MIP_Cuts_Gomory-Disjunctive-LiftProj:LiftProj 0
35
Node Left Objective IInf Best_Integer Best_Bound ItCnt Gap
0+ 0 nan nan 16780.9114 -1678.3241 nan 110.00%
0+ 0 nan nan -187.6361 -1678.3241 nan 794.46%
0 0 -420.9670 14 -187.6361 -420.9670 75 124.35%
0+ 0 nan nan -253.1346 -420.9670 nan 66.30%
0+ 0 nan nan -417.9530 -420.9670 nan 0.72%
0 0 -420.8826 18 -417.9530 Cuts:8 106 0.70%
0 0 -420.4920 20 -417.9530 Cuts:24 129 0.61%
0 0 -420.3981 22 -417.9530 Cuts:20 143 0.59%
0 0 -420.3167 17 -417.9530 Cuts:7 158 0.57%
0 0 -420.2711 22 -417.9530 Cuts:6 168 0.55%
0 0 -420.1977 19 -417.9530 Cuts:9 180 0.54%
0 0 -420.1745 19 -417.9530 LiftProj:2 188 0.53%
0 0 -420.1433 19 -417.9530 LiftProj:4 196 0.52%
0 0 cutoff -417.9530 -420.1433 196 0.52% 0
CPXPARAM_MIP_Cuts_Gomory-Disjunctive-LiftProj:Gomory 8
CPXPARAM_MIP_Cuts_Gomory-Disjunctive-LiftProj:Disjunctive 6
CPXPARAM_MIP_Cuts_Gomory-Disjunctive-LiftProj:LiftProj 0
36
Node Left Objective IInf Best_Integer Best_Bound ItCnt Gap
0+ 0 nan nan 22941.7465 -2294.1747 nan 110.00%
0+ 0 nan nan -123.5349 -2294.1747 nan ---
0 0 -146.5944 12 -123.5349 -146.5944 96 18.67%
0 0 -145.3470 6 -123.5349 Cuts:9 107 17.66%
0+ 0 nan nan -140.1787 -145.3470 nan 3.69%
0 0 -144.9424 7 -140.1787 Cuts:6 118 3.40%
0 0 -144.4149 7 -140.1787 Cuts:8 138 3.02%
0 0 -143.7423 7 -140.1787 Cuts:8 156 2.54%
0 0 -143.5315 6 -140.1787 Cuts:7 168 2.39%
0 0 -143.4448 5 -140.1787 Cuts:7 176 2.33%
0 0 -143.3699 8 -140.1787 Cuts:12 185 2.28%
0 0 -143.3018 5 -140.1787 LiftProj:5 192 2.23%
0 0 -143.0240 8 -140.1787 LiftProj:5 202 2.03%
0 0 -142.9400 8 -140.1787 Cuts:8 211 1.97%
0 0 -142.8286 8 -140.1787 LiftProj:7 221 1.89%
0 0 -142.6525 8 -140.1787 LiftProj:6 231 1.76%
0 0 -142.4783 8 -140.1787 LiftProj:4 242 1.64%
0 0 -142.4287 7 -140.1787 LiftProj:4 249 1.61%
0 0 -142.3943 6 -140.1787 LiftProj:5 258 1.58%
0 0 -142.2954 8 -140.1787 LiftProj:6 269 1.51%
0 0 -142.2355 8 -140.1787 Cuts:11 274 1.47%
0 0 -142.0923 9 -140.1787 LiftProj:6 289 1.37%
0 0 -142.0145 9 -140.1787 LiftProj:5 294 1.31%
0 0 -141.6333 9 -140.1787 LiftProj:4 305 1.04%
0 0 -141.6038 9 -140.1787 LiftProj:6 312 1.02%
0 0 -141.4691 9 -140.1787 LiftProj:3 317 0.92%
0 0 -141.3525 9 -140.1787 LiftProj:5 329 0.84%
0 0 -141.2828 8 -140.1787 LiftProj:5 338 0.79%
0 0 -141.1936 9 -140.1787 LiftProj:5 346 0.72%
0 0 -141.1658 9 -140.1787 LiftProj:3 352 0.70%
0 1 -140.3091 2 -140.1787 -140.2239 352 0.03%
CPXPARAM_MIP_Cuts_Gomory-Disjunctive-LiftProj:Gomory 15
CPXPARAM_MIP_Cuts_Gomory-Disjunctive-LiftProj:Disjunctive 0
CPXPARAM_MIP_Cuts_Gomory-Disjunctive-LiftProj:LiftProj 0
37
Node Left Objective IInf Best_Integer Best_Bound ItCnt Gap
0+ 0 nan nan 22253.7712 -2225.3771 nan 110.00%
0+ 0 nan nan -192.7597 -2225.3771 nan ---
0 0 -583.6149 25 -192.7597 -583.6149 103 202.77%
0+ 0 nan nan -350.5396 -583.6149 nan 66.49%
0 0 -581.7188 26 -350.5396 Cuts:11 118 65.95%
0 0 -580.0033 29 -350.5396 Cuts:24 142 65.46%
0+ 0 nan nan -355.5276 -580.0033 nan 63.14%
0 0 -579.5245 29 -355.5276 Cuts:16 160 63.00%
0 0 -579.0782 29 -355.5276 Cuts:22 186 62.88%
0 0 -578.5948 32 -355.5276 Cuts:19 206 62.74%
0 0 -577.5574 29 -355.5276 Cuts:19 237 62.45%
0 0 -577.2732 32 -355.5276 Cuts:22 261 62.37%
0 0 -577.1067 31 -355.5276 Cuts:21 279 62.32%
0 0 -577.0213 32 -355.5276 Cuts:24 293 62.30%
0 0 -576.7139 28 -355.5276 Cuts:19 313 62.21%
0 0 -576.6492 32 -355.5276 Cuts:30 325 62.20%
0 0 -576.6031 31 -355.5276 LiftProj:21 338 62.18%
0 0 -576.5811 31 -355.5276 LiftProj:22 347 62.18%
0+ 0 nan nan -557.3116 -576.5811 nan 3.46%
0+ 0 nan nan -564.3118 -576.5811 nan 2.17%
0 2 -576.5811 31 -564.3118 -576.5733 347 2.17%
CPXPARAM_MIP_Cuts_Gomory-Disjunctive-LiftProj:Gomory 19
CPXPARAM_MIP_Cuts_Gomory-Disjunctive-LiftProj:Disjunctive 3
CPXPARAM_MIP_Cuts_Gomory-Disjunctive-LiftProj:LiftProj 0
38
Node Left Objective IInf Best_Integer Best_Bound ItCnt Gap
0+ 0 nan nan 19121.8104 -1912.4176 nan 110.00%
0+ 0 nan nan -95.8861 -1912.4176 nan ---
0 0 -109.3384 7 -95.8861 -109.3384 75 14.03%
0+ 0 nan nan -109.3384 -109.3384 nan 0.00%
0 0 cutoff -109.3384 -109.3384 75 0.00% 0
CPXPARAM_MIP_Cuts_Gomory-Disjunctive-LiftProj:Gomory 0
CPXPARAM_MIP_Cuts_Gomory-Disjunctive-LiftProj:Disjunctive 0
CPXPARAM_MIP_Cuts_Gomory-Disjunctive-LiftProj:LiftProj 0
39
Node Left Objective IInf Best_Integer Best_Bound ItCnt Gap
0+ 0 nan nan 22617.4474 -2261.8298 nan 110.00%
0+ 0 nan nan -361.4650 -2261.8298 nan 525.74%
0 0 -588.7435 24 -361.4650 -588.7435 97 62.88%
0+ 0 nan nan -434.4180 -588.7435 nan 35.52%
0 0 -586.7614 20 -434.4180 Cuts:8 121 35.07%
0 0 -585.1278 24 -434.4180 Cuts:19 145 34.69%
0 0 -584.9363 23 -434.4180 Cuts:17 163 34.65%
0 0 -584.4013 24 -434.4180 Cuts:22 180 34.53%
0 0 -584.0121 27 -434.4180 Cuts:20 199 34.44%
0 0 -583.8190 26 -434.4180 LiftProj:16 220 34.39%
0 0 -583.6541 23 -434.4180 LiftProj:21 241 34.35%
0 0 -583.4553 27 -434.4180 LiftProj:12 257 34.31%
0 0 -583.3858 24 -434.4180 LiftProj:11 268 34.29%
0+ 0 nan nan -434.5619 -583.3858 nan 34.25%
0 0 -583.3366 24 -434.5619 LiftProj:17 276 34.24%
0 0 -583.1737 28 -434.5619 LiftProj:13 288 34.20%
0 0 -583.1041 28 -434.5619 LiftProj:11 301 34.18%
0+ 0 nan nan -571.2971 -583.1041 nan 2.07%
0 2 -583.1041 29 -571.2971 -583.0837 301 2.06%
CPXPARAM_MIP_Cuts_Gomory-Disjunctive-LiftProj:Gomory 14
CPXPARAM_MIP_Cuts_Gomory-Disjunctive-LiftProj:Disjunctive 4
CPXPARAM_MIP_Cuts_Gomory-Disjunctive-LiftProj:LiftProj 0
